51
100
79	2
77	1
76	1
75	1
73	1
72	1
70	4
67	2
64	3
63	3
61	1
60	2
59	3
58	1
57	3
56	1
54	1
53	3
52	1
51	4
50	1
49	3
48	1
45	1
44	2
41	2
40	2
39	1
38	3
37	1
36	3
35	2
32	3
30	1
29	1
28	1
27	2
26	2
24	6
23	1
21	1
20	2
19	1
18	1
17	1
16	2
15	3
13	3
12	4
11	2
10	2
